qbf_easy_train/easy_5820_UNSAT.qdimacs
p cnf 17 35
a 11 13 7 0
e 1 2 3 4 5 6 8 9 10 12 14 15 16 17 0
-3 1 0
-3 2 0
-1 -2 3 0
-4 -5 -6 0
4 5 -6 0
-4 5 6 0
4 -5 6 0
3 -6 -7 0
-3 6 -7 0
3 6 7 0
-3 -6 7 0
-10 -8 0
-10 9 0
8 -9 10 0
-11 5 -12 0
11 -5 -12 0
-11 -5 12 0
11 5 12 0
13 10 0
13 12 0
-10 -12 -13 0
-15 -14 0
-15 -4 0
14 4 15 0
-13 15 -16 0
13 -15 -16 0
-13 -15 16 0
13 15 16 0
17 7 0
17 -16 0
-7 16 -17 0
14 1 -11 0
-4 -3 -11 0
13 -7 15 8 0
17 0
