sat_easy_train/easy_5820_UNSAT.dimacs
p cnf 108 360
-3 -1 0
-3 2 0
1 -2 3 0
5 3 0
5 -4 0
-3 4 -5 0
5 2 -6 0
-5 -2 -6 0
5 -2 6 0
-5 2 6 0
10 8 0
10 9 0
-8 -9 -10 0
10 11 -12 0
-10 -11 -12 0
10 -11 12 0
-10 11 12 0
-13 -7 0
-13 -12 0
7 12 13 0
-14 -6 0
-14 13 0
6 -13 14 0
-15 -16 -17 0
15 16 -17 0
-15 16 17 0
15 -16 17 0
-19 18 0
-19 -2 0
-18 2 19 0
-20 17 0
-20 -19 0
-17 19 20 0
-14 -20 -21 0
14 20 -21 0
-14 20 21 0
14 -20 21 0
18 10 -22 0
-18 -10 -22 0
18 -10 22 0
-18 10 22 0
-22 23 -24 0
22 -23 -24 0
-22 -23 24 0
22 23 24 0
25 -24 0
25 -23 0
24 23 -25 0
27 26 0
27 4 0
-26 -4 -27 0
-28 27 0
-28 15 0
-27 -15 28 0
-29 -25 0
-29 -28 0
25 28 29 0
-30 -3 0
-30 -25 0
3 25 30 0
29 -30 -31 0
-29 30 -31 0
29 30 31 0
-29 -30 31 0
-32 -10 0
-32 28 0
10 -28 32 0
33 -22 0
33 32 0
22 -32 -33 0
-31 33 -34 0
31 -33 -34 0
-31 -33 34 0
31 33 34 0
-36 -35 0
-36 -10 0
35 10 36 0
-38 -36 0
-38 -37 0
36 37 38 0
40 -39 0
40 16 0
39 -16 -40 0
-41 40 0
-41 -23 0
-40 23 41 0
42 -38 0
42 41 0
38 -41 -42 0
34 42 -43 0
-34 -42 -43 0
34 -42 43 0
-34 42 43 0
-15 -11 -44 0
15 11 -44 0
-15 11 44 0
15 -11 44 0
26 -5 -45 0
-26 5 -45 0
26 5 45 0
-26 -5 45 0
46 45 0
46 8 0
-45 -8 -46 0
-48 47 0
-48 -4 0
-47 4 48 0
48 35 -49 0
-48 -35 -49 0
48 -35 49 0
-48 35 49 0
-50 46 0
-50 49 0
-46 -49 50 0
51 -44 0
51 -50 0
44 50 -51 0
-52 43 0
-52 -51 0
-43 51 52 0
-21 52 -53 0
21 -52 -53 0
-21 -52 53 0
21 52 53 0
-54 39 0
-54 3 0
-39 -3 54 0
55 -1 0
55 8 0
1 -8 -55 0
56 54 0
56 55 0
-54 -55 -56 0
-57 -55 0
-57 -37 0
55 37 57 0
-58 28 0
-58 -5 0
-28 5 58 0
59 -57 0
59 58 0
57 -58 -59 0
-60 56 0
-60 59 0
-56 -59 60 0
-8 -16 -61 0
8 16 -61 0
-8 16 61 0
8 -16 61 0
-45 -61 -62 0
45 61 -62 0
-45 61 62 0
45 -61 62 0
39 -27 -63 0
-39 27 -63 0
39 27 63 0
-39 -27 63 0
-64 -9 0
-64 -63 0
9 63 64 0
9 48 -65 0
-9 -48 -65 0
9 -48 65 0
-9 48 65 0
4 65 -66 0
-4 -65 -66 0
4 -65 66 0
-4 65 66 0
64 66 -67 0
-64 -66 -67 0
64 -66 67 0
-64 66 67 0
62 67 -68 0
-62 -67 -68 0
62 -67 68 0
-62 67 68 0
65 40 -69 0
-65 -40 -69 0
65 -40 69 0
-65 40 69 0
55 -3 -70 0
-55 3 -70 0
55 3 70 0
-55 -3 70 0
-71 -32 0
-71 -70 0
32 70 71 0
72 16 0
72 -2 0
-16 2 -72 0
73 -37 0
73 -8 0
37 8 -73 0
-74 -72 0
-74 -73 0
72 73 74 0
71 -74 -75 0
-71 74 -75 0
71 74 75 0
-71 -74 75 0
76 -27 0
76 17 0
27 -17 -76 0
-77 -2 0
-77 -17 0
2 17 77 0
-78 -77 0
-78 -3 0
77 3 78 0
-18 78 -79 0
18 -78 -79 0
-18 -78 79 0
18 78 79 0
-80 76 0
-80 79 0
-76 -79 80 0
-45 77 -81 0
45 -77 -81 0
-45 -77 81 0
45 77 81 0
82 80 0
82 -81 0
-80 81 -82 0
83 75 0
83 82 0
-75 -82 -83 0
-84 -69 0
-84 83 0
69 -83 84 0
-85 -48 0
-85 35 0
48 -35 85 0
84 85 -86 0
-84 -85 -86 0
84 -85 86 0
-84 85 86 0
-87 -23 0
-87 -37 0
23 37 87 0
88 1 0
88 -35 0
-1 35 -88 0
87 88 -89 0
-87 -88 -89 0
87 -88 89 0
-87 88 89 0
-90 -86 0
-90 89 0
86 -89 90 0
-68 -90 -91 0
68 90 -91 0
-68 90 91 0
68 -90 91 0
92 60 0
92 91 0
-60 -91 -92 0
53 -92 -93 0
-53 92 -93 0
53 92 93 0
-53 -92 93 0
-48 -35 -94 0
48 35 -94 0
-48 35 94 0
48 -35 94 0
95 -94 0
95 -16 0
94 16 -95 0
95 39 -96 0
-95 -39 -96 0
95 -39 96 0
-95 39 96 0
97 96 0
97 2 0
-96 -2 -97 0
-97 -72 -98 0
97 72 -98 0
-97 72 98 0
97 -72 98 0
-70 1 -99 0
70 -1 -99 0
-70 -1 99 0
70 1 99 0
-100 -40 0
-100 99 0
40 -99 100 0
25 -1 -101 0
-25 1 -101 0
25 1 101 0
-25 -1 101 0
-102 100 0
-102 101 0
-100 -101 102 0
-98 102 -103 0
98 -102 -103 0
-98 -102 103 0
98 102 103 0
-104 77 0
-104 -2 0
-77 2 104 0
-105 61 0
-105 11 0
-61 -11 105 0
-106 -104 0
-106 -105 0
104 105 106 0
-103 -106 -107 0
103 106 -107 0
-103 106 107 0
103 -106 107 0
108 93 0
108 -107 0
-93 107 -108 0
1 -79 71 46 28 -45 0
91 -92 24 0
-59 19 -44 -69 -64 0
36 74 -50 0
10 51 72 0
-74 11 -86 62 -87 0
-22 -73 50 0
-92 44 98 0
88 -96 -28 -44 80 -94 0
-76 20 -22 107 0
11 83 -98 61 31 0
54 92 0
-108 68 -102 -17 13 0
-48 17 27 96 12 -72 0
-5 46 -45 -8 -62 0
100 97 12 0
-2 82 0
-94 28 51 -79 0
-105 -15 0
29 -31 0
60 59 11 44 0
-104 -80 -103 -19 29 -91 0
82 -106 99 46 70 -51 0
42 2 14 1 -88 0
-42 39 0
15 42 0
-4 7 18 101 77 78 0
68 -2 0
-101 37 88 65 0
-44 54 0
-101 41 76 36 -2 47 0
5 -60 70 -51 0
-20 67 -92 0
-11 -54 32 1 70 0
29 -62 0
105 -62 -7 0
-72 -85 -47 -99 5 0
58 107 0
105 -51 0
-15 -62 0
58 29 -48 0
65 -70 0
51 87 34 0
16 80 43 0
75 20 -39 -18 0
78 61 -30 0
-18 -102 53 0
108 0
